NAME : XML1500_2215_01
COMMENT : Generated as the XML100 dataset from the CVRPLIB
TYPE : CVRP
DIMENSION : 1501
EDGE_WEIGHT_TYPE : EUC_2D
CAPACITY : 21
NODE_COORD_SECTION
1    500  500 
2    55   313 
3    46   530 
4    18   282 
5    800  812 
6    244  365 
7    792  728 
8    787  878 
9    51   235 
10   678  742 
11   225  208 
12   56   286 
13   17   215 
14   55   470 
15   128  540 
16   246  532 
17   27   228 
18   880  818 
19   160  608 
20   136  171 
21   133  511 
22   55   591 
23   887  713 
24   69   346 
25   834  823 
26   104  569 
27   805  796 
28   21   571 
29   771  803 
30   236  230 
31   109  275 
32   100  455 
33   767  769 
34   117  544 
35   211  322 
36   190  528 
37   862  777 
38   782  668 
39   365  236 
40   694  820 
41   91   527 
42   794  764 
43   4    230 
44   64   244 
45   303  526 
46   962  756 
47   104  582 
48   237  437 
49   778  904 
50   165  677 
51   310  686 
52   819  829 
53   79   265 
54   215  534 
55   154  295 
56   735  835 
57   63   522 
58   906  982 
59   96   619 
60   865  801 
61   869  771 
62   63   378 
63   274  332 
64   85   545 
65   64   522 
66   60   143 
67   175  475 
68   836  858 
69   71   274 
70   98   111 
71   14   377 
72   160  431 
73   790  747 
74   5    328 
75   680  732 
76   150  423 
77   2    259 
78   161  432 
79   669  722 
80   45   486 
81   26   207 
82   136  524 
83   1    299 
84   240  581 
85   90   493 
86   164  442 
87   934  769 
88   918  761 
89   134  307 
90   80   299 
91   65   585 
92   85   270 
93   725  896 
94   172  9   
95   108  519 
96   920  991 
97   2    537 
98   556  831 
99   694  764 
100  89   132 
101  214  541 
102  96   177 
103  685  837 
104  185  105 
105  211  243 
106  811  796 
107  863  843 
108  965  711 
109  800  903 
110  78   244 
111  177  366 
112  799  678 
113  126  549 
114  138  560 
115  15   309 
116  80   289 
117  79   510 
118  92   529 
119  163  180 
120  917  791 
121  854  851 
122  157  550 
123  705  764 
124  275  542 
125  905  529 
126  178  838 
127  835  879 
128  77   297 
129  103  435 
130  737  837 
131  811  786 
132  113  601 
133  228  551 
134  130  16  
135  173  386 
136  405  220 
137  822  917 
138  31   387 
139  128  585 
140  776  657 
141  100  523 
142  359  634 
143  63   492 
144  104  493 
145  68   570 
146  70   122 
147  21   495 
148  146  346 
149  915  857 
150  112  353 
151  759  838 
152  828  788 
153  868  781 
154  65   277 
155  9    233 
156  865  712 
157  322  464 
158  253  184 
159  267  384 
160  47   609 
161  795  768 
162  114  290 
163  902  751 
164  191  510 
165  201  560 
166  782  834 
167  369  107 
168  78   80  
169  902  872 
170  101  328 
171  73   495 
172  54   253 
173  698  849 
174  76   420 
175  567  923 
176  86   470 
177  252  502 
178  50   404 
179  75   577 
180  852  763 
181  171  285 
182  150  491 
183  180  599 
184  773  884 
185  203  353 
186  917  748 
187  13   378 
188  961  791 
189  403  383 
190  896  810 
191  92   378 
192  23   507 
193  50   381 
194  805  808 
195  56   275 
196  658  609 
197  630  547 
198  232  766 
199  120  296 
200  20   358 
201  842  695 
202  697  722 
203  187  471 
204  153  329 
205  755  663 
206  103  657 
207  819  684 
208  918  806 
209  876  809 
210  794  776 
211  297  644 
212  846  557 
213  905  643 
214  763  788 
215  166  569 
216  823  839 
217  117  533 
218  176  619 
219  803  860 
220  976  788 
221  869  662 
222  141  517 
223  39   240 
224  525  744 
225  109  686 
226  105  307 
227  96   487 
228  101  416 
229  837  750 
230  113  247 
231  947  738 
232  149  578 
233  927  500 
234  170  637 
235  16   350 
236  825  897 
237  82   524 
238  806  475 
239  230  279 
240  730  745 
241  89   419 
242  61   357 
243  8    351 
244  287  440 
245  64   511 
246  77   450 
247  233  325 
248  909  953 
249  188  439 
250  155  262 
251  976  634 
252  733  876 
253  70   154 
254  805  752 
255  824  765 
256  189  254 
257  2    513 
258  99   482 
259  823  927 
260  152  493 
261  173  287 
262  63   501 
263  164  467 
264  134  561 
265  75   246 
266  239  497 
267  173  143 
268  199  281 
269  191  277 
270  176  563 
271  102  348 
272  608  745 
273  34   479 
274  823  819 
275  247  623 
276  160  289 
277  38   220 
278  117  513 
279  922  797 
280  5    271 
281  119  293 
282  102  469 
283  878  690 
284  282  27  
285  834  769 
286  29   112 
287  736  727 
288  194  444 
289  1    278 
290  840  821 
291  681  568 
292  818  802 
293  115  7   
294  92   289 
295  732  649 
296  770  761 
297  776  692 
298  897  573 
299  942  724 
300  125  587 
301  12   301 
302  859  811 
303  115  393 
304  46   299 
305  145  421 
306  246  360 
307  354  716 
308  127  259 
309  769  666 
310  167  481 
311  117  480 
312  792  798 
313  838  765 
314  3    229 
315  790  837 
316  800  738 
317  866  683 
318  96   542 
319  88   538 
320  54   396 
321  20   403 
322  86   348 
323  827  877 
324  117  601 
325  112  257 
326  182  581 
327  122  450 
328  945  603 
329  27   298 
330  382  346 
331  18   329 
332  438  543 
333  127  501 
334  100  633 
335  107  263 
336  245  233 
337  818  769 
338  105  604 
339  801  716 
340  793  712 
341  159  166 
342  959  744 
343  660  713 
344  787  817 
345  143  715 
346  260  742 
347  890  766 
348  293  510 
349  193  343 
350  841  644 
351  96   267 
352  765  770 
353  197  169 
354  61   245 
355  140  309 
356  239  431 
357  847  696 
358  44   192 
359  511  710 
360  168  227 
361  321  506 
362  747  879 
363  922  731 
364  25   300 
365  124  571 
366  94   579 
367  61   402 
368  83   161 
369  7    22  
370  26   529 
371  220  431 
372  972  938 
373  84   247 
374  43   209 
375  219  471 
376  760  646 
377  203  463 
378  196  195 
379  141  637 
380  118  504 
381  952  852 
382  710  681 
383  183  261 
384  79   289 
385  141  529 
386  245  586 
387  29   324 
388  5    604 
389  13   465 
390  774  786 
391  39   337 
392  10   310 
393  791  875 
394  3    271 
395  107  508 
396  146  436 
397  36   304 
398  923  658 
399  27   255 
400  860  867 
401  60   697 
402  189  253 
403  844  779 
404  1    202 
405  157  486 
406  102  550 
407  915  659 
408  117  270 
409  748  927 
410  923  779 
411  88   243 
412  700  770 
413  22   297 
414  55   294 
415  825  886 
416  94   258 
417  406  673 
418  157  463 
419  817  738 
420  827  788 
421  347  71  
422  216  405 
423  128  521 
424  99   494 
425  210  590 
426  78   291 
427  732  815 
428  129  522 
429  181  532 
430  910  678 
431  125  488 
432  62   697 
433  29   291 
434  130  194 
435  776  714 
436  895  814 
437  253  264 
438  182  649 
439  30   335 
440  806  742 
441  41   530 
442  315  504 
443  63   405 
444  112  181 
445  101  251 
446  270  474 
447  83   239 
448  777  656 
449  647  955 
450  60   255 
451  77   573 
452  130  436 
453  774  766 
454  481  284 
455  30   348 
456  572  817 
457  764  838 
458  23   80  
459  120  507 
460  741  854 
461  321  417 
462  98   259 
463  224  335 
464  831  784 
465  101  493 
466  126  177 
467  36   549 
468  79   367 
469  22   650 
470  853  807 
471  244  434 
472  212  222 
473  851  883 
474  141  607 
475  78   258 
476  54   804 
477  195  434 
478  155  218 
479  781  760 
480  29   258 
481  45   202 
482  752  738 
483  743  769 
484  167  493 
485  124  531 
486  846  781 
487  887  782 
488  24   264 
489  83   350 
490  268  624 
491  271  141 
492  902  798 
493  27   189 
494  56   332 
495  57   297 
496  843  748 
497  118  572 
498  91   475 
499  84   436 
500  820  584 
501  96   410 
502  830  814 
503  931  717 
504  899  764 
505  171  440 
506  110  573 
507  796  757 
508  72   317 
509  120  510 
510  86   517 
511  119  514 
512  740  861 
513  92   268 
514  666  683 
515  961  717 
516  167  447 
517  768  816 
518  84   449 
519  792  764 
520  128  455 
521  160  258 
522  164  557 
523  34   39  
524  4    276 
525  182  462 
526  43   267 
527  40   607 
528  804  774 
529  801  741 
530  15   326 
531  40   499 
532  60   477 
533  261  467 
534  168  239 
535  99   405 
536  224  436 
537  787  662 
538  127  503 
539  134  399 
540  226  631 
541  734  772 
542  232  525 
543  863  657 
544  680  801 
545  24   267 
546  245  235 
547  114  569 
548  39   395 
549  246  316 
550  131  478 
551  23   387 
552  143  452 
553  80   283 
554  195  270 
555  854  809 
556  198  504 
557  283  648 
558  163  403 
559  295  473 
560  203  210 
561  844  801 
562  815  737 
563  107  242 
564  125  147 
565  100  648 
566  53   536 
567  167  149 
568  287  65  
569  809  815 
570  61   247 
571  209  267 
572  159  446 
573  761  743 
574  145  511 
575  37   191 
576  18   406 
577  324  598 
578  75   568 
579  113  451 
580  41   166 
581  100  252 
582  780  914 
583  833  740 
584  176  476 
585  812  802 
586  43   211 
587  22   188 
588  66   231 
589  102  562 
590  76   244 
591  451  307 
592  140  265 
593  912  781 
594  10   155 
595  37   554 
596  73   211 
597  714  802 
598  604  930 
599  320  88  
600  17   316 
601  102  539 
602  884  840 
603  91   386 
604  22   286 
605  850  783 
606  59   290 
607  163  527 
608  288  787 
609  803  707 
610  60   254 
611  305  467 
612  161  602 
613  864  839 
614  123  310 
615  69   339 
616  87   244 
617  842  820 
618  145  334 
619  851  905 
620  150  714 
621  82   430 
622  919  667 
623  882  748 
624  726  766 
625  842  797 
626  159  246 
627  102  529 
628  805  766 
629  759  799 
630  218  295 
631  42   335 
632  33   286 
633  19   351 
634  136  527 
635  885  731 
636  917  863 
637  129  259 
638  807  811 
639  198  209 
640  75   633 
641  153  323 
642  31   446 
643  852  855 
644  136  648 
645  212  149 
646  159  488 
647  861  823 
648  9    580 
649  262  351 
650  847  861 
651  841  701 
652  739  690 
653  123  421 
654  55   286 
655  842  931 
656  808  789 
657  738  810 
658  4    177 
659  87   620 
660  731  807 
661  129  213 
662  827  780 
663  63   384 
664  163  471 
665  919  863 
666  204  243 
667  75   358 
668  601  962 
669  748  752 
670  878  861 
671  41   630 
672  5    298 
673  56   609 
674  818  852 
675  106  466 
676  694  901 
677  767  742 
678  78   260 
679  76   479 
680  24   289 
681  160  558 
682  80   449 
683  71   486 
684  706  768 
685  713  627 
686  63   253 
687  73   266 
688  167  459 
689  260  272 
690  861  790 
691  143  510 
692  862  871 
693  194  183 
694  78   237 
695  136  507 
696  717  718 
697  113  460 
698  6    397 
699  646  694 
700  860  803 
701  134  519 
702  279  528 
703  92   293 
704  453  564 
705  834  750 
706  933  643 
707  69   309 
708  121  585 
709  66   649 
710  790  743 
711  5    553 
712  8    299 
713  73   279 
714  159  468 
715  773  776 
716  921  790 
717  879  793 
718  824  857 
719  63   207 
720  869  865 
721  781  752 
722  822  789 
723  395  307 
724  94   315 
725  722  558 
726  112  369 
727  80   416 
728  97   505 
729  105  366 
730  148  556 
731  129  314 
732  849  783 
733  6    243 
734  84   428 
735  759  746 
736  188  485 
737  655  774 
738  74   234 
739  93   247 
740  99   407 
741  826  772 
742  68   419 
743  123  126 
744  6    364 
745  58   411 
746  145  379 
747  111  237 
748  846  835 
749  153  499 
750  133  441 
751  781  742 
752  896  692 
753  150  350 
754  906  742 
755  115  243 
756  127  217 
757  527  745 
758  100  120 
759  219  449 
760  718  807 
761  864  632 
762  40   334 
763  832  828 
764  791  647 
765  214  635 
766  99   505 
767  132  453 
768  25   327 
769  312  649 
770  69   662 
771  872  757 
772  783  908 
773  162  481 
774  830  760 
775  52   200 
776  868  872 
777  265  164 
778  73   488 
779  800  853 
780  49   396 
781  252  230 
782  75   305 
783  148  438 
784  916  884 
785  708  855 
786  904  766 
787  120  312 
788  775  801 
789  46   283 
790  167  658 
791  45   403 
792  205  392 
793  84   251 
794  988  657 
795  68   651 
796  62   348 
797  834  864 
798  111  469 
799  867  861 
800  163  516 
801  937  956 
802  716  728 
803  477  37  
804  295  671 
805  718  774 
806  222  421 
807  682  851 
808  153  587 
809  87   233 
810  125  525 
811  110  545 
812  161  447 
813  826  837 
814  761  591 
815  886  622 
816  858  789 
817  120  302 
818  777  837 
819  55   321 
820  951  873 
821  206  490 
822  150  595 
823  28   569 
824  823  809 
825  97   439 
826  64   262 
827  187  598 
828  73   347 
829  70   278 
830  760  761 
831  49   111 
832  824  745 
833  875  976 
834  57   380 
835  840  726 
836  309  601 
837  26   477 
838  861  933 
839  753  842 
840  79   260 
841  779  751 
842  63   252 
843  6    275 
844  2    650 
845  77   335 
846  336  37  
847  841  847 
848  233  439 
849  846  782 
850  117  493 
851  76   455 
852  917  842 
853  8    357 
854  734  577 
855  83   616 
856  193  487 
857  39   429 
858  44   251 
859  744  891 
860  61   569 
861  96   447 
862  157  277 
863  105  532 
864  10   114 
865  93   557 
866  666  684 
867  518  557 
868  61   461 
869  135  410 
870  791  715 
871  830  792 
872  161  139 
873  164  293 
874  876  795 
875  60   501 
876  812  859 
877  176  569 
878  188  543 
879  636  782 
880  799  696 
881  818  795 
882  172  534 
883  54   170 
884  866  722 
885  861  756 
886  365  440 
887  9    284 
888  805  712 
889  129  349 
890  73   268 
891  934  862 
892  792  778 
893  116  266 
894  74   269 
895  805  833 
896  29   383 
897  169  277 
898  73   160 
899  100  263 
900  46   292 
901  69   275 
902  74   390 
903  120  357 
904  146  266 
905  258  556 
906  239  48  
907  728  999 
908  64   461 
909  78   216 
910  180  529 
911  139  491 
912  99   275 
913  800  731 
914  812  705 
915  55   497 
916  154  476 
917  828  829 
918  33   186 
919  901  819 
920  840  660 
921  634  820 
922  126  413 
923  882  805 
924  137  688 
925  772  790 
926  76   412 
927  97   206 
928  102  321 
929  200  484 
930  868  763 
931  813  827 
932  45   52  
933  169  496 
934  1    274 
935  119  495 
936  800  744 
937  812  718 
938  257  465 
939  829  807 
940  662  779 
941  34   429 
942  95   524 
943  52   562 
944  172  478 
945  153  236 
946  846  837 
947  100  495 
948  200  353 
949  92   527 
950  100  351 
951  324  504 
952  778  823 
953  168  485 
954  40   192 
955  875  877 
956  117  561 
957  158  184 
958  794  660 
959  264  494 
960  257  455 
961  831  807 
962  120  566 
963  46   537 
964  33   189 
965  57   137 
966  656  811 
967  788  881 
968  467  795 
969  4    247 
970  794  552 
971  64   261 
972  50   363 
973  231  438 
974  238  334 
975  34   275 
976  7    666 
977  818  765 
978  134  478 
979  762  684 
980  119  498 
981  106  379 
982  6    441 
983  178  404 
984  745  780 
985  634  800 
986  107  380 
987  908  923 
988  139  448 
989  126  478 
990  143  567 
991  65   239 
992  196  430 
993  864  709 
994  57   500 
995  138  345 
996  838  836 
997  101  542 
998  891  847 
999  937  814 
1000 89   159 
1001 140  390 
1002 106  248 
1003 32   448 
1004 819  944 
1005 838  957 
1006 144  360 
1007 178  273 
1008 141  620 
1009 296  265 
1010 65   481 
1011 16   476 
1012 812  904 
1013 315  772 
1014 183  473 
1015 154  675 
1016 150  561 
1017 52   663 
1018 65   602 
1019 83   507 
1020 758  825 
1021 918  814 
1022 43   205 
1023 140  403 
1024 85   287 
1025 31   316 
1026 138  564 
1027 82   663 
1028 837  601 
1029 188  192 
1030 144  494 
1031 876  794 
1032 923  726 
1033 27   323 
1034 951  708 
1035 157  469 
1036 48   382 
1037 147  504 
1038 181  417 
1039 755  769 
1040 97   274 
1041 107  733 
1042 1    306 
1043 206  446 
1044 38   490 
1045 199  407 
1046 45   349 
1047 212  526 
1048 196  518 
1049 188  663 
1050 168  419 
1051 125  494 
1052 145  472 
1053 941  900 
1054 187  554 
1055 838  780 
1056 161  272 
1057 79   239 
1058 77   458 
1059 862  764 
1060 680  873 
1061 219  398 
1062 942  729 
1063 151  608 
1064 291  359 
1065 251  323 
1066 811  803 
1067 763  763 
1068 158  360 
1069 29   395 
1070 938  880 
1071 94   375 
1072 891  768 
1073 121  478 
1074 888  879 
1075 774  857 
1076 19   201 
1077 812  740 
1078 203  367 
1079 94   231 
1080 125  484 
1081 693  676 
1082 792  947 
1083 844  814 
1084 191  514 
1085 37   227 
1086 51   274 
1087 847  855 
1088 800  743 
1089 161  527 
1090 897  712 
1091 89   93  
1092 229  253 
1093 47   276 
1094 166  233 
1095 177  471 
1096 163  573 
1097 10   214 
1098 15   329 
1099 54   257 
1100 848  941 
1101 10   479 
1102 927  825 
1103 117  462 
1104 82   355 
1105 192  227 
1106 108  264 
1107 18   599 
1108 35   14  
1109 132  441 
1110 720  611 
1111 197  341 
1112 113  464 
1113 746  785 
1114 229  266 
1115 7    302 
1116 144  716 
1117 87   182 
1118 767  844 
1119 59   349 
1120 115  509 
1121 871  901 
1122 483  676 
1123 4    269 
1124 764  811 
1125 854  704 
1126 27   437 
1127 154  478 
1128 967  766 
1129 273  169 
1130 172  382 
1131 798  930 
1132 126  271 
1133 218  354 
1134 115  607 
1135 6    620 
1136 158  196 
1137 2    357 
1138 116  199 
1139 408  636 
1140 1    132 
1141 822  770 
1142 105  455 
1143 133  553 
1144 63   574 
1145 103  121 
1146 812  697 
1147 798  799 
1148 248  475 
1149 821  782 
1150 745  792 
1151 61   276 
1152 173  337 
1153 273  424 
1154 71   555 
1155 890  774 
1156 253  302 
1157 159  295 
1158 10   315 
1159 45   538 
1160 901  788 
1161 78   306 
1162 112  219 
1163 146  477 
1164 843  783 
1165 19   256 
1166 954  650 
1167 102  519 
1168 67   598 
1169 117  46  
1170 263  365 
1171 69   234 
1172 119  500 
1173 150  573 
1174 711  869 
1175 917  745 
1176 11   265 
1177 852  881 
1178 876  829 
1179 287  434 
1180 72   280 
1181 799  874 
1182 65   241 
1183 657  790 
1184 2    157 
1185 41   414 
1186 6    456 
1187 774  673 
1188 801  776 
1189 105  435 
1190 764  745 
1191 815  710 
1192 633  819 
1193 840  740 
1194 836  998 
1195 1    462 
1196 0    354 
1197 822  691 
1198 90   427 
1199 47   285 
1200 133  474 
1201 777  841 
1202 57   600 
1203 773  727 
1204 58   336 
1205 157  49  
1206 814  844 
1207 711  751 
1208 58   192 
1209 148  494 
1210 870  744 
1211 183  488 
1212 872  790 
1213 796  831 
1214 695  748 
1215 92   306 
1216 123  293 
1217 879  685 
1218 95   460 
1219 209  482 
1220 100  575 
1221 52   269 
1222 115  554 
1223 124  294 
1224 52   534 
1225 675  662 
1226 843  740 
1227 788  804 
1228 172  535 
1229 828  611 
1230 119  300 
1231 698  767 
1232 926  774 
1233 75   230 
1234 129  350 
1235 39   456 
1236 123  535 
1237 312  587 
1238 68   455 
1239 109  493 
1240 714  752 
1241 772  693 
1242 121  503 
1243 13   561 
1244 154  271 
1245 165  509 
1246 97   374 
1247 176  295 
1248 762  764 
1249 821  850 
1250 709  758 
1251 72   466 
1252 775  703 
1253 874  825 
1254 148  461 
1255 41   106 
1256 760  696 
1257 871  792 
1258 140  493 
1259 86   522 
1260 23   582 
1261 57   315 
1262 937  773 
1263 848  701 
1264 124  490 
1265 116  257 
1266 179  542 
1267 105  513 
1268 773  792 
1269 35   268 
1270 1    275 
1271 832  697 
1272 57   63  
1273 182  323 
1274 83   201 
1275 166  235 
1276 887  898 
1277 79   352 
1278 170  470 
1279 210  506 
1280 792  782 
1281 818  920 
1282 49   180 
1283 10   746 
1284 832  854 
1285 49   445 
1286 879  786 
1287 106  570 
1288 1    288 
1289 877  862 
1290 829  785 
1291 99   531 
1292 174  445 
1293 72   168 
1294 146  499 
1295 763  961 
1296 91   568 
1297 70   216 
1298 103  313 
1299 755  849 
1300 268  465 
1301 95   165 
1302 903  747 
1303 41   194 
1304 146  247 
1305 103  434 
1306 124  228 
1307 129  572 
1308 206  526 
1309 133  133 
1310 116  489 
1311 806  792 
1312 377  529 
1313 41   580 
1314 891  750 
1315 785  854 
1316 112  496 
1317 77   358 
1318 75   285 
1319 25   464 
1320 754  722 
1321 229  608 
1322 71   171 
1323 805  804 
1324 161  473 
1325 769  738 
1326 45   298 
1327 899  847 
1328 820  703 
1329 93   194 
1330 832  942 
1331 740  679 
1332 132  567 
1333 827  720 
1334 241  595 
1335 69   223 
1336 154  447 
1337 158  417 
1338 97   321 
1339 82   278 
1340 832  510 
1341 800  823 
1342 12   219 
1343 30   267 
1344 111  341 
1345 880  852 
1346 189  260 
1347 668  789 
1348 300  393 
1349 861  838 
1350 791  859 
1351 168  358 
1352 679  919 
1353 94   674 
1354 869  936 
1355 94   265 
1356 776  708 
1357 174  523 
1358 52   268 
1359 102  534 
1360 143  535 
1361 775  748 
1362 820  899 
1363 136  532 
1364 860  828 
1365 180  431 
1366 218  457 
1367 63   520 
1368 28   562 
1369 810  863 
1370 650  645 
1371 81   308 
1372 842  815 
1373 987  904 
1374 739  839 
1375 124  535 
1376 43   461 
1377 811  827 
1378 188  327 
1379 67   266 
1380 42   618 
1381 24   75  
1382 831  778 
1383 746  590 
1384 330  761 
1385 148  375 
1386 189  263 
1387 931  757 
1388 136  257 
1389 86   256 
1390 231  494 
1391 109  505 
1392 128  518 
1393 803  836 
1394 79   253 
1395 259  220 
1396 730  708 
1397 755  652 
1398 632  810 
1399 907  749 
1400 739  793 
1401 110  505 
1402 102  501 
1403 797  654 
1404 844  586 
1405 908  750 
1406 183  611 
1407 765  701 
1408 117  257 
1409 119  446 
1410 78   265 
1411 872  540 
1412 12   585 
1413 849  785 
1414 119  302 
1415 254  118 
1416 110  482 
1417 650  841 
1418 314  477 
1419 719  827 
1420 92   177 
1421 192  264 
1422 850  758 
1423 790  856 
1424 815  800 
1425 905  959 
1426 82   248 
1427 944  658 
1428 869  893 
1429 21   238 
1430 858  883 
1431 757  651 
1432 910  930 
1433 1    408 
1434 132  599 
1435 25   244 
1436 45   222 
1437 197  319 
1438 865  635 
1439 194  430 
1440 120  252 
1441 36   258 
1442 4    571 
1443 140  315 
1444 51   386 
1445 666  546 
1446 29   111 
1447 234  251 
1448 171  460 
1449 722  828 
1450 7    208 
1451 85   536 
1452 707  848 
1453 114  154 
1454 754  780 
1455 763  865 
1456 784  659 
1457 201  424 
1458 814  767 
1459 141  64  
1460 185  479 
1461 52   709 
1462 187  525 
1463 266  589 
1464 100  377 
1465 130  665 
1466 17   379 
1467 52   336 
1468 131  629 
1469 102  193 
1470 172  517 
1471 842  726 
1472 885  804 
1473 264  111 
1474 87   415 
1475 763  698 
1476 177  488 
1477 143  580 
1478 162  221 
1479 345  193 
1480 893  785 
1481 858  827 
1482 540  926 
1483 230  212 
1484 262  280 
1485 844  785 
1486 728  753 
1487 826  767 
1488 155  568 
1489 140  668 
1490 761  786 
1491 793  855 
1492 681  763 
1493 197  564 
1494 65   265 
1495 806  794 
1496 195  640 
1497 188  372 
1498 205  541 
1499 136  181 
1500 128  442 
1501 240  503 
DEMAND_SECTION
1    0   
2    1   
3    1   
4    1   
5    1   
6    1   
7    1   
8    1   
9    1   
10   1   
11   1   
12   1   
13   1   
14   1   
15   1   
16   1   
17   1   
18   1   
19   1   
20   1   
21   1   
22   1   
23   1   
24   1   
25   1   
26   1   
27   1   
28   1   
29   1   
30   1   
31   1   
32   1   
33   1   
34   1   
35   1   
36   1   
37   1   
38   1   
39   1   
40   1   
41   1   
42   1   
43   1   
44   1   
45   1   
46   1   
47   1   
48   1   
49   1   
50   1   
51   1   
52   1   
53   1   
54   1   
55   1   
56   1   
57   1   
58   1   
59   1   
60   1   
61   1   
62   1   
63   1   
64   1   
65   1   
66   1   
67   1   
68   1   
69   1   
70   1   
71   1   
72   1   
73   1   
74   1   
75   1   
76   1   
77   1   
78   1   
79   1   
80   1   
81   1   
82   1   
83   1   
84   1   
85   1   
86   1   
87   1   
88   1   
89   1   
90   1   
91   1   
92   1   
93   1   
94   1   
95   1   
96   1   
97   1   
98   1   
99   1   
100  1   
101  1   
102  1   
103  1   
104  1   
105  1   
106  1   
107  1   
108  1   
109  1   
110  1   
111  1   
112  1   
113  1   
114  1   
115  1   
116  1   
117  1   
118  1   
119  1   
120  1   
121  1   
122  1   
123  1   
124  1   
125  1   
126  1   
127  1   
128  1   
129  1   
130  1   
131  1   
132  1   
133  1   
134  1   
135  1   
136  1   
137  1   
138  1   
139  1   
140  1   
141  1   
142  1   
143  1   
144  1   
145  1   
146  1   
147  1   
148  1   
149  1   
150  1   
151  1   
152  1   
153  1   
154  1   
155  1   
156  1   
157  1   
158  1   
159  1   
160  1   
161  1   
162  1   
163  1   
164  1   
165  1   
166  1   
167  1   
168  1   
169  1   
170  1   
171  1   
172  1   
173  1   
174  1   
175  1   
176  1   
177  1   
178  1   
179  1   
180  1   
181  1   
182  1   
183  1   
184  1   
185  1   
186  1   
187  1   
188  1   
189  1   
190  1   
191  1   
192  1   
193  1   
194  1   
195  1   
196  1   
197  1   
198  1   
199  1   
200  1   
201  1   
202  1   
203  1   
204  1   
205  1   
206  1   
207  1   
208  1   
209  1   
210  1   
211  1   
212  1   
213  1   
214  1   
215  1   
216  1   
217  1   
218  1   
219  1   
220  1   
221  1   
222  1   
223  1   
224  1   
225  1   
226  1   
227  1   
228  1   
229  1   
230  1   
231  1   
232  1   
233  1   
234  1   
235  1   
236  1   
237  1   
238  1   
239  1   
240  1   
241  1   
242  1   
243  1   
244  1   
245  1   
246  1   
247  1   
248  1   
249  1   
250  1   
251  1   
252  1   
253  1   
254  1   
255  1   
256  1   
257  1   
258  1   
259  1   
260  1   
261  1   
262  1   
263  1   
264  1   
265  1   
266  1   
267  1   
268  1   
269  1   
270  1   
271  1   
272  1   
273  1   
274  1   
275  1   
276  1   
277  1   
278  1   
279  1   
280  1   
281  1   
282  1   
283  1   
284  1   
285  1   
286  1   
287  1   
288  1   
289  1   
290  1   
291  1   
292  1   
293  1   
294  1   
295  1   
296  1   
297  1   
298  1   
299  1   
300  1   
301  1   
302  1   
303  1   
304  1   
305  1   
306  1   
307  1   
308  1   
309  1   
310  1   
311  1   
312  1   
313  1   
314  1   
315  1   
316  1   
317  1   
318  1   
319  1   
320  1   
321  1   
322  1   
323  1   
324  1   
325  1   
326  1   
327  1   
328  1   
329  1   
330  1   
331  1   
332  1   
333  1   
334  1   
335  1   
336  1   
337  1   
338  1   
339  1   
340  1   
341  1   
342  1   
343  1   
344  1   
345  1   
346  1   
347  1   
348  1   
349  1   
350  1   
351  1   
352  1   
353  1   
354  1   
355  1   
356  1   
357  1   
358  1   
359  1   
360  1   
361  1   
362  1   
363  1   
364  1   
365  1   
366  1   
367  1   
368  1   
369  1   
370  1   
371  1   
372  1   
373  1   
374  1   
375  1   
376  1   
377  1   
378  1   
379  1   
380  1   
381  1   
382  1   
383  1   
384  1   
385  1   
386  1   
387  1   
388  1   
389  1   
390  1   
391  1   
392  1   
393  1   
394  1   
395  1   
396  1   
397  1   
398  1   
399  1   
400  1   
401  1   
402  1   
403  1   
404  1   
405  1   
406  1   
407  1   
408  1   
409  1   
410  1   
411  1   
412  1   
413  1   
414  1   
415  1   
416  1   
417  1   
418  1   
419  1   
420  1   
421  1   
422  1   
423  1   
424  1   
425  1   
426  1   
427  1   
428  1   
429  1   
430  1   
431  1   
432  1   
433  1   
434  1   
435  1   
436  1   
437  1   
438  1   
439  1   
440  1   
441  1   
442  1   
443  1   
444  1   
445  1   
446  1   
447  1   
448  1   
449  1   
450  1   
451  1   
452  1   
453  1   
454  1   
455  1   
456  1   
457  1   
458  1   
459  1   
460  1   
461  1   
462  1   
463  1   
464  1   
465  1   
466  1   
467  1   
468  1   
469  1   
470  1   
471  1   
472  1   
473  1   
474  1   
475  1   
476  1   
477  1   
478  1   
479  1   
480  1   
481  1   
482  1   
483  1   
484  1   
485  1   
486  1   
487  1   
488  1   
489  1   
490  1   
491  1   
492  1   
493  1   
494  1   
495  1   
496  1   
497  1   
498  1   
499  1   
500  1   
501  1   
502  1   
503  1   
504  1   
505  1   
506  1   
507  1   
508  1   
509  1   
510  1   
511  1   
512  1   
513  1   
514  1   
515  1   
516  1   
517  1   
518  1   
519  1   
520  1   
521  1   
522  1   
523  1   
524  1   
525  1   
526  1   
527  1   
528  1   
529  1   
530  1   
531  1   
532  1   
533  1   
534  1   
535  1   
536  1   
537  1   
538  1   
539  1   
540  1   
541  1   
542  1   
543  1   
544  1   
545  1   
546  1   
547  1   
548  1   
549  1   
550  1   
551  1   
552  1   
553  1   
554  1   
555  1   
556  1   
557  1   
558  1   
559  1   
560  1   
561  1   
562  1   
563  1   
564  1   
565  1   
566  1   
567  1   
568  1   
569  1   
570  1   
571  1   
572  1   
573  1   
574  1   
575  1   
576  1   
577  1   
578  1   
579  1   
580  1   
581  1   
582  1   
583  1   
584  1   
585  1   
586  1   
587  1   
588  1   
589  1   
590  1   
591  1   
592  1   
593  1   
594  1   
595  1   
596  1   
597  1   
598  1   
599  1   
600  1   
601  1   
602  1   
603  1   
604  1   
605  1   
606  1   
607  1   
608  1   
609  1   
610  1   
611  1   
612  1   
613  1   
614  1   
615  1   
616  1   
617  1   
618  1   
619  1   
620  1   
621  1   
622  1   
623  1   
624  1   
625  1   
626  1   
627  1   
628  1   
629  1   
630  1   
631  1   
632  1   
633  1   
634  1   
635  1   
636  1   
637  1   
638  1   
639  1   
640  1   
641  1   
642  1   
643  1   
644  1   
645  1   
646  1   
647  1   
648  1   
649  1   
650  1   
651  1   
652  1   
653  1   
654  1   
655  1   
656  1   
657  1   
658  1   
659  1   
660  1   
661  1   
662  1   
663  1   
664  1   
665  1   
666  1   
667  1   
668  1   
669  1   
670  1   
671  1   
672  1   
673  1   
674  1   
675  1   
676  1   
677  1   
678  1   
679  1   
680  1   
681  1   
682  1   
683  1   
684  1   
685  1   
686  1   
687  1   
688  1   
689  1   
690  1   
691  1   
692  1   
693  1   
694  1   
695  1   
696  1   
697  1   
698  1   
699  1   
700  1   
701  1   
702  1   
703  1   
704  1   
705  1   
706  1   
707  1   
708  1   
709  1   
710  1   
711  1   
712  1   
713  1   
714  1   
715  1   
716  1   
717  1   
718  1   
719  1   
720  1   
721  1   
722  1   
723  1   
724  1   
725  1   
726  1   
727  1   
728  1   
729  1   
730  1   
731  1   
732  1   
733  1   
734  1   
735  1   
736  1   
737  1   
738  1   
739  1   
740  1   
741  1   
742  1   
743  1   
744  1   
745  1   
746  1   
747  1   
748  1   
749  1   
750  1   
751  1   
752  1   
753  1   
754  1   
755  1   
756  1   
757  1   
758  1   
759  1   
760  1   
761  1   
762  1   
763  1   
764  1   
765  1   
766  1   
767  1   
768  1   
769  1   
770  1   
771  1   
772  1   
773  1   
774  1   
775  1   
776  1   
777  1   
778  1   
779  1   
780  1   
781  1   
782  1   
783  1   
784  1   
785  1   
786  1   
787  1   
788  1   
789  1   
790  1   
791  1   
792  1   
793  1   
794  1   
795  1   
796  1   
797  1   
798  1   
799  1   
800  1   
801  1   
802  1   
803  1   
804  1   
805  1   
806  1   
807  1   
808  1   
809  1   
810  1   
811  1   
812  1   
813  1   
814  1   
815  1   
816  1   
817  1   
818  1   
819  1   
820  1   
821  1   
822  1   
823  1   
824  1   
825  1   
826  1   
827  1   
828  1   
829  1   
830  1   
831  1   
832  1   
833  1   
834  1   
835  1   
836  1   
837  1   
838  1   
839  1   
840  1   
841  1   
842  1   
843  1   
844  1   
845  1   
846  1   
847  1   
848  1   
849  1   
850  1   
851  1   
852  1   
853  1   
854  1   
855  1   
856  1   
857  1   
858  1   
859  1   
860  1   
861  1   
862  1   
863  1   
864  1   
865  1   
866  1   
867  1   
868  1   
869  1   
870  1   
871  1   
872  1   
873  1   
874  1   
875  1   
876  1   
877  1   
878  1   
879  1   
880  1   
881  1   
882  1   
883  1   
884  1   
885  1   
886  1   
887  1   
888  1   
889  1   
890  1   
891  1   
892  1   
893  1   
894  1   
895  1   
896  1   
897  1   
898  1   
899  1   
900  1   
901  1   
902  1   
903  1   
904  1   
905  1   
906  1   
907  1   
908  1   
909  1   
910  1   
911  1   
912  1   
913  1   
914  1   
915  1   
916  1   
917  1   
918  1   
919  1   
920  1   
921  1   
922  1   
923  1   
924  1   
925  1   
926  1   
927  1   
928  1   
929  1   
930  1   
931  1   
932  1   
933  1   
934  1   
935  1   
936  1   
937  1   
938  1   
939  1   
940  1   
941  1   
942  1   
943  1   
944  1   
945  1   
946  1   
947  1   
948  1   
949  1   
950  1   
951  1   
952  1   
953  1   
954  1   
955  1   
956  1   
957  1   
958  1   
959  1   
960  1   
961  1   
962  1   
963  1   
964  1   
965  1   
966  1   
967  1   
968  1   
969  1   
970  1   
971  1   
972  1   
973  1   
974  1   
975  1   
976  1   
977  1   
978  1   
979  1   
980  1   
981  1   
982  1   
983  1   
984  1   
985  1   
986  1   
987  1   
988  1   
989  1   
990  1   
991  1   
992  1   
993  1   
994  1   
995  1   
996  1   
997  1   
998  1   
999  1   
1000 1   
1001 1   
1002 1   
1003 1   
1004 1   
1005 1   
1006 1   
1007 1   
1008 1   
1009 1   
1010 1   
1011 1   
1012 1   
1013 1   
1014 1   
1015 1   
1016 1   
1017 1   
1018 1   
1019 1   
1020 1   
1021 1   
1022 1   
1023 1   
1024 1   
1025 1   
1026 1   
1027 1   
1028 1   
1029 1   
1030 1   
1031 1   
1032 1   
1033 1   
1034 1   
1035 1   
1036 1   
1037 1   
1038 1   
1039 1   
1040 1   
1041 1   
1042 1   
1043 1   
1044 1   
1045 1   
1046 1   
1047 1   
1048 1   
1049 1   
1050 1   
1051 1   
1052 1   
1053 1   
1054 1   
1055 1   
1056 1   
1057 1   
1058 1   
1059 1   
1060 1   
1061 1   
1062 1   
1063 1   
1064 1   
1065 1   
1066 1   
1067 1   
1068 1   
1069 1   
1070 1   
1071 1   
1072 1   
1073 1   
1074 1   
1075 1   
1076 1   
1077 1   
1078 1   
1079 1   
1080 1   
1081 1   
1082 1   
1083 1   
1084 1   
1085 1   
1086 1   
1087 1   
1088 1   
1089 1   
1090 1   
1091 1   
1092 1   
1093 1   
1094 1   
1095 1   
1096 1   
1097 1   
1098 1   
1099 1   
1100 1   
1101 1   
1102 1   
1103 1   
1104 1   
1105 1   
1106 1   
1107 1   
1108 1   
1109 1   
1110 1   
1111 1   
1112 1   
1113 1   
1114 1   
1115 1   
1116 1   
1117 1   
1118 1   
1119 1   
1120 1   
1121 1   
1122 1   
1123 1   
1124 1   
1125 1   
1126 1   
1127 1   
1128 1   
1129 1   
1130 1   
1131 1   
1132 1   
1133 1   
1134 1   
1135 1   
1136 1   
1137 1   
1138 1   
1139 1   
1140 1   
1141 1   
1142 1   
1143 1   
1144 1   
1145 1   
1146 1   
1147 1   
1148 1   
1149 1   
1150 1   
1151 1   
1152 1   
1153 1   
1154 1   
1155 1   
1156 1   
1157 1   
1158 1   
1159 1   
1160 1   
1161 1   
1162 1   
1163 1   
1164 1   
1165 1   
1166 1   
1167 1   
1168 1   
1169 1   
1170 1   
1171 1   
1172 1   
1173 1   
1174 1   
1175 1   
1176 1   
1177 1   
1178 1   
1179 1   
1180 1   
1181 1   
1182 1   
1183 1   
1184 1   
1185 1   
1186 1   
1187 1   
1188 1   
1189 1   
1190 1   
1191 1   
1192 1   
1193 1   
1194 1   
1195 1   
1196 1   
1197 1   
1198 1   
1199 1   
1200 1   
1201 1   
1202 1   
1203 1   
1204 1   
1205 1   
1206 1   
1207 1   
1208 1   
1209 1   
1210 1   
1211 1   
1212 1   
1213 1   
1214 1   
1215 1   
1216 1   
1217 1   
1218 1   
1219 1   
1220 1   
1221 1   
1222 1   
1223 1   
1224 1   
1225 1   
1226 1   
1227 1   
1228 1   
1229 1   
1230 1   
1231 1   
1232 1   
1233 1   
1234 1   
1235 1   
1236 1   
1237 1   
1238 1   
1239 1   
1240 1   
1241 1   
1242 1   
1243 1   
1244 1   
1245 1   
1246 1   
1247 1   
1248 1   
1249 1   
1250 1   
1251 1   
1252 1   
1253 1   
1254 1   
1255 1   
1256 1   
1257 1   
1258 1   
1259 1   
1260 1   
1261 1   
1262 1   
1263 1   
1264 1   
1265 1   
1266 1   
1267 1   
1268 1   
1269 1   
1270 1   
1271 1   
1272 1   
1273 1   
1274 1   
1275 1   
1276 1   
1277 1   
1278 1   
1279 1   
1280 1   
1281 1   
1282 1   
1283 1   
1284 1   
1285 1   
1286 1   
1287 1   
1288 1   
1289 1   
1290 1   
1291 1   
1292 1   
1293 1   
1294 1   
1295 1   
1296 1   
1297 1   
1298 1   
1299 1   
1300 1   
1301 1   
1302 1   
1303 1   
1304 1   
1305 1   
1306 1   
1307 1   
1308 1   
1309 1   
1310 1   
1311 1   
1312 1   
1313 1   
1314 1   
1315 1   
1316 1   
1317 1   
1318 1   
1319 1   
1320 1   
1321 1   
1322 1   
1323 1   
1324 1   
1325 1   
1326 1   
1327 1   
1328 1   
1329 1   
1330 1   
1331 1   
1332 1   
1333 1   
1334 1   
1335 1   
1336 1   
1337 1   
1338 1   
1339 1   
1340 1   
1341 1   
1342 1   
1343 1   
1344 1   
1345 1   
1346 1   
1347 1   
1348 1   
1349 1   
1350 1   
1351 1   
1352 1   
1353 1   
1354 1   
1355 1   
1356 1   
1357 1   
1358 1   
1359 1   
1360 1   
1361 1   
1362 1   
1363 1   
1364 1   
1365 1   
1366 1   
1367 1   
1368 1   
1369 1   
1370 1   
1371 1   
1372 1   
1373 1   
1374 1   
1375 1   
1376 1   
1377 1   
1378 1   
1379 1   
1380 1   
1381 1   
1382 1   
1383 1   
1384 1   
1385 1   
1386 1   
1387 1   
1388 1   
1389 1   
1390 1   
1391 1   
1392 1   
1393 1   
1394 1   
1395 1   
1396 1   
1397 1   
1398 1   
1399 1   
1400 1   
1401 1   
1402 1   
1403 1   
1404 1   
1405 1   
1406 1   
1407 1   
1408 1   
1409 1   
1410 1   
1411 1   
1412 1   
1413 1   
1414 1   
1415 1   
1416 1   
1417 1   
1418 1   
1419 1   
1420 1   
1421 1   
1422 1   
1423 1   
1424 1   
1425 1   
1426 1   
1427 1   
1428 1   
1429 1   
1430 1   
1431 1   
1432 1   
1433 1   
1434 1   
1435 1   
1436 1   
1437 1   
1438 1   
1439 1   
1440 1   
1441 1   
1442 1   
1443 1   
1444 1   
1445 1   
1446 1   
1447 1   
1448 1   
1449 1   
1450 1   
1451 1   
1452 1   
1453 1   
1454 1   
1455 1   
1456 1   
1457 1   
1458 1   
1459 1   
1460 1   
1461 1   
1462 1   
1463 1   
1464 1   
1465 1   
1466 1   
1467 1   
1468 1   
1469 1   
1470 1   
1471 1   
1472 1   
1473 1   
1474 1   
1475 1   
1476 1   
1477 1   
1478 1   
1479 1   
1480 1   
1481 1   
1482 1   
1483 1   
1484 1   
1485 1   
1486 1   
1487 1   
1488 1   
1489 1   
1490 1   
1491 1   
1492 1   
1493 1   
1494 1   
1495 1   
1496 1   
1497 1   
1498 1   
1499 1   
1500 1   
1501 1   
DEPOT_SECTION
1
-1
EOF
